c CNF file corresponding to a (partial) station packing problem.
p cnf 2242 229
1 2 3 4 5 6 7 8 9 10 11 12 13 14 0
-1 -2 0
-1 -3 0
-1 -4 0
-1 -5 0
-1 -6 0
-1 -7 0
-1 -8 0
-1 -9 0
-1 -10 0
-1 -11 0
-1 -12 0
-1 -13 0
-1 -14 0
-2 -3 0
-2 -4 0
-2 -5 0
-2 -6 0
-2 -7 0
-2 -8 0
-2 -9 0
-2 -10 0
-2 -11 0
-2 -12 0
-2 -13 0
-2 -14 0
-3 -4 0
-3 -5 0
-3 -6 0
-3 -7 0
-3 -8 0
-3 -9 0
-3 -10 0
-3 -11 0
-3 -12 0
-3 -13 0
-3 -14 0
-4 -5 0
-4 -6 0
-4 -7 0
-4 -8 0
-4 -9 0
-4 -10 0
-4 -11 0
-4 -12 0
-4 -13 0
-4 -14 0
-5 -6 0
-5 -7 0
-5 -8 0
-5 -9 0
-5 -10 0
-5 -11 0
-5 -12 0
-5 -13 0
-5 -14 0
-6 -7 0
-6 -8 0
-6 -9 0
-6 -10 0
-6 -11 0
-6 -12 0
-6 -13 0
-6 -14 0
-7 -8 0
-7 -9 0
-7 -10 0
-7 -11 0
-7 -12 0
-7 -13 0
-7 -14 0
-8 -9 0
-8 -10 0
-8 -11 0
-8 -12 0
-8 -13 0
-8 -14 0
-9 -10 0
-9 -11 0
-9 -12 0
-9 -13 0
-9 -14 0
-10 -11 0
-10 -12 0
-10 -13 0
-10 -14 0
-11 -12 0
-11 -13 0
-11 -14 0
-12 -13 0
-12 -14 0
-13 -14 0
2226 2227 2228 2229 2230 2231 2232 2233 2234 2235 2236 2237 2238 2239 2240 2241 2242 0
-2226 -2227 0
-2226 -2228 0
-2226 -2229 0
-2226 -2230 0
-2226 -2231 0
-2226 -2232 0
-2226 -2233 0
-2226 -2234 0
-2226 -2235 0
-2226 -2236 0
-2226 -2237 0
-2226 -2238 0
-2226 -2239 0
-2226 -2240 0
-2226 -2241 0
-2226 -2242 0
-2227 -2228 0
-2227 -2229 0
-2227 -2230 0
-2227 -2231 0
-2227 -2232 0
-2227 -2233 0
-2227 -2234 0
-2227 -2235 0
-2227 -2236 0
-2227 -2237 0
-2227 -2238 0
-2227 -2239 0
-2227 -2240 0
-2227 -2241 0
-2227 -2242 0
-2228 -2229 0
-2228 -2230 0
-2228 -2231 0
-2228 -2232 0
-2228 -2233 0
-2228 -2234 0
-2228 -2235 0
-2228 -2236 0
-2228 -2237 0
-2228 -2238 0
-2228 -2239 0
-2228 -2240 0
-2228 -2241 0
-2228 -2242 0
-2229 -2230 0
-2229 -2231 0
-2229 -2232 0
-2229 -2233 0
-2229 -2234 0
-2229 -2235 0
-2229 -2236 0
-2229 -2237 0
-2229 -2238 0
-2229 -2239 0
-2229 -2240 0
-2229 -2241 0
-2229 -2242 0
-2230 -2231 0
-2230 -2232 0
-2230 -2233 0
-2230 -2234 0
-2230 -2235 0
-2230 -2236 0
-2230 -2237 0
-2230 -2238 0
-2230 -2239 0
-2230 -2240 0
-2230 -2241 0
-2230 -2242 0
-2231 -2232 0
-2231 -2233 0
-2231 -2234 0
-2231 -2235 0
-2231 -2236 0
-2231 -2237 0
-2231 -2238 0
-2231 -2239 0
-2231 -2240 0
-2231 -2241 0
-2231 -2242 0
-2232 -2233 0
-2232 -2234 0
-2232 -2235 0
-2232 -2236 0
-2232 -2237 0
-2232 -2238 0
-2232 -2239 0
-2232 -2240 0
-2232 -2241 0
-2232 -2242 0
-2233 -2234 0
-2233 -2235 0
-2233 -2236 0
-2233 -2237 0
-2233 -2238 0
-2233 -2239 0
-2233 -2240 0
-2233 -2241 0
-2233 -2242 0
-2234 -2235 0
-2234 -2236 0
-2234 -2237 0
-2234 -2238 0
-2234 -2239 0
-2234 -2240 0
-2234 -2241 0
-2234 -2242 0
-2235 -2236 0
-2235 -2237 0
-2235 -2238 0
-2235 -2239 0
-2235 -2240 0
-2235 -2241 0
-2235 -2242 0
-2236 -2237 0
-2236 -2238 0
-2236 -2239 0
-2236 -2240 0
-2236 -2241 0
-2236 -2242 0
-2237 -2238 0
-2237 -2239 0
-2237 -2240 0
-2237 -2241 0
-2237 -2242 0
-2238 -2239 0
-2238 -2240 0
-2238 -2241 0
-2238 -2242 0
-2239 -2240 0
-2239 -2241 0
-2239 -2242 0
-2240 -2241 0
-2240 -2242 0
-2241 -2242 0
